
Gurobi 6.0.5 (linux64) logging started Sun Oct 22 10:42:48 2017


Gurobi 6.0.5 (linux64) logging started Sun Oct 22 10:43:43 2017


Gurobi 6.0.5 (linux64) logging started Sun Oct 22 10:46:21 2017


Gurobi 6.0.5 (linux64) logging started Sun Oct 22 10:47:15 2017


Gurobi 6.0.5 (linux64) logging started Sun Oct 22 10:50:20 2017


Gurobi 6.0.5 (linux64) logging started Sun Oct 22 10:51:06 2017


Gurobi 6.0.5 (linux64) logging started Sun Oct 22 10:54:42 2017


Gurobi 6.0.5 (linux64) logging started Sun Oct 22 10:55:29 2017


Gurobi 6.0.5 (linux64) logging started Sun Oct 22 10:59:41 2017


Gurobi 6.0.5 (linux64) logging started Sun Oct 22 11:00:23 2017


Gurobi 6.0.5 (linux64) logging started Sun Oct 22 11:05:45 2017


Gurobi 6.0.5 (linux64) logging started Sun Oct 22 11:06:26 2017


Gurobi 6.0.5 (linux64) logging started Sun Oct 22 11:12:38 2017


Gurobi 6.0.5 (linux64) logging started Sun Oct 22 11:13:21 2017


Gurobi 6.0.5 (linux64) logging started Sun Oct 22 11:21:02 2017


Gurobi 6.0.5 (linux64) logging started Sun Oct 22 11:21:50 2017


Gurobi 6.0.5 (linux64) logging started Sun Oct 22 11:30:40 2017


Gurobi 6.0.5 (linux64) logging started Sun Oct 22 11:31:20 2017

